
Gurobi 10.0.1 (linux64) logging started Sun Nov 26 15:46:27 2023

Set parameter LogFile to value "ArtificialInstance/ExperimentV2/S2T3K2/AdSp/gurobi91.txt"
Gurobi Optimizer version 10.0.1 build v10.0.1rc0 (linux64)

CPU model: AMD EPYC 7H12 64-Core Processor, instruction set [SSE2|AVX|AVX2]
Thread count: 128 physical cores, 128 logical processors, using up to 32 threads

Academic license 656792 - for non-commercial use only - registered to b.___@student.vu.nl
Optimize a model with 5068 rows, 5049 columns and 19019 nonzeros
Model fingerprint: 0xf312a03b
Variable types: 0 continuous, 5049 integer (5049 binary)
Coefficient statistics:
  Matrix range     [1e+00, 1e+00]
  Objective range  [2e+00, 2e+01]
  Bounds range     [1e+00, 1e+00]
  RHS range        [1e+00, 1e+00]
Presolve removed 795 rows and 842 columns
Presolve time: 0.08s
Presolved: 4273 rows, 4207 columns, 16282 nonzeros
Variable types: 0 continuous, 4207 integer (4207 binary)
Found heuristic solution: objective 493.5674874

Root relaxation: objective 4.639589e+01, 2461 iterations, 0.09 seconds (0.07 work units)

    Nodes    |    Current Node    |     Objective Bounds      |     Work
 Expl Unexpl |  Obj  Depth IntInf | Incumbent    BestBd   Gap | It/Node Time

     0     0   46.39589    0  179  493.56749   46.39589  90.6%     -    0s
H    0     0                      55.9470131   46.39589  17.1%     -    0s
H    0     0                      51.1017030   46.39589  9.21%     -    0s
*    0     0               0      47.2483566   47.24836  0.00%     -    0s

Cutting planes:
  Gomory: 1
  Zero half: 18

Explored 1 nodes (3496 simplex iterations) in 0.31 seconds (0.19 work units)
Thread count was 32 (of 128 available processors)

Solution count 4: 47.2484 51.1017 55.947 493.567 

Optimal solution found (tolerance 1.00e-04)
Best objective 4.724835660588e+01, best bound 4.724835660588e+01, gap 0.0000%
